p edge 925 1672
e 1 16 1
e 1 2 1
e 2 17 1
e 2 3 1
e 3 18 1
e 3 4 1
e 4 19 1
e 5 24 1
e 5 6 1
e 6 25 1
e 6 7 1
e 7 26 1
e 7 8 1
e 8 27 1
e 8 9 1
e 9 28 1
e 9 10 1
e 10 29 1
e 10 11 1
e 11 30 1
e 12 31 1
e 12 13 1
e 13 32 1
e 13 14 1
e 14 33 1
e 15 39 1
e 15 16 1
e 16 40 1
e 16 17 1
e 17 41 1
e 17 18 1
e 18 42 1
e 18 19 1
e 19 43 1
e 19 20 1
e 20 44 1
e 20 21 1
e 22 23 1
e 23 45 1
e 23 24 1
e 24 46 1
e 24 25 1
e 25 47 1
e 25 26 1
e 26 48 1
e 26 27 1
e 27 49 1
e 27 28 1
e 28 50 1
e 28 29 1
e 29 51 1
e 29 30 1
e 30 52 1
e 31 56 1
e 31 32 1
e 32 57 1
e 32 33 1
e 33 58 1
e 33 34 1
e 34 59 1
e 34 35 1
e 35 60 1
e 35 36 1
e 36 61 1
e 36 37 1
e 37 62 1
e 37 38 1
e 38 63 1
e 39 64 1
e 39 40 1
e 40 65 1
e 40 41 1
e 41 66 1
e 41 42 1
e 42 67 1
e 42 43 1
e 43 68 1
e 43 44 1
e 44 69 1
e 45 70 1
e 45 46 1
e 46 71 1
e 46 47 1
e 47 72 1
e 47 48 1
e 48 73 1
e 48 49 1
e 49 74 1
e 49 50 1
e 50 75 1
e 50 51 1
e 51 76 1
e 51 52 1
e 52 77 1
e 53 85 1
e 53 54 1
e 54 86 1
e 54 55 1
e 55 87 1
e 56 91 1
e 56 57 1
e 57 92 1
e 57 58 1
e 58 93 1
e 58 59 1
e 59 94 1
e 59 60 1
e 60 95 1
e 60 61 1
e 61 96 1
e 61 62 1
e 62 97 1
e 62 63 1
e 63 98 1
e 64 99 1
e 64 65 1
e 65 100 1
e 65 66 1
e 66 101 1
e 66 67 1
e 67 102 1
e 67 68 1
e 68 103 1
e 68 69 1
e 69 104 1
e 70 105 1
e 70 71 1
e 71 106 1
e 71 72 1
e 72 107 1
e 72 73 1
e 73 108 1
e 73 74 1
e 74 109 1
e 74 75 1
e 75 110 1
e 75 76 1
e 76 111 1
e 76 77 1
e 77 112 1
e 78 113 1
e 78 79 1
e 79 114 1
e 79 80 1
e 80 115 1
e 80 81 1
e 81 116 1
e 81 82 1
e 82 117 1
e 82 83 1
e 83 118 1
e 83 84 1
e 84 119 1
e 84 85 1
e 85 120 1
e 85 86 1
e 86 121 1
e 86 87 1
e 87 122 1
e 87 88 1
e 88 123 1
e 89 127 1
e 89 90 1
e 90 128 1
e 90 91 1
e 91 129 1
e 91 92 1
e 92 130 1
e 92 93 1
e 93 131 1
e 93 94 1
e 94 132 1
e 94 95 1
e 95 133 1
e 95 96 1
e 96 134 1
e 96 97 1
e 97 135 1
e 97 98 1
e 98 136 1
e 99 100 1
e 100 137 1
e 100 101 1
e 101 138 1
e 101 102 1
e 102 139 1
e 102 103 1
e 103 140 1
e 103 104 1
e 104 141 1
e 105 142 1
e 105 106 1
e 106 143 1
e 106 107 1
e 107 144 1
e 107 108 1
e 108 145 1
e 108 109 1
e 109 146 1
e 109 110 1
e 110 147 1
e 110 111 1
e 111 148 1
e 111 112 1
e 112 149 1
e 113 150 1
e 113 114 1
e 114 151 1
e 114 115 1
e 115 152 1
e 115 116 1
e 116 153 1
e 116 117 1
e 117 154 1
e 117 118 1
e 118 155 1
e 118 119 1
e 119 156 1
e 119 120 1
e 120 157 1
e 120 121 1
e 121 158 1
e 121 122 1
e 122 159 1
e 122 123 1
e 123 160 1
e 123 124 1
e 124 161 1
e 125 165 1
e 125 126 1
e 126 166 1
e 126 127 1
e 127 167 1
e 127 128 1
e 128 168 1
e 128 129 1
e 129 169 1
e 129 130 1
e 130 170 1
e 130 131 1
e 131 171 1
e 131 132 1
e 132 172 1
e 132 133 1
e 133 173 1
e 133 134 1
e 134 174 1
e 134 135 1
e 135 175 1
e 135 136 1
e 136 176 1
e 137 177 1
e 137 138 1
e 138 178 1
e 138 139 1
e 139 179 1
e 139 140 1
e 140 180 1
e 140 141 1
e 141 181 1
e 142 182 1
e 142 143 1
e 143 183 1
e 143 144 1
e 144 184 1
e 144 145 1
e 145 185 1
e 145 146 1
e 146 186 1
e 146 147 1
e 147 187 1
e 147 148 1
e 148 188 1
e 148 149 1
e 149 189 1
e 150 151 1
e 151 152 1
e 152 153 1
e 153 154 1
e 154 155 1
e 155 156 1
e 156 157 1
e 157 158 1
e 158 159 1
e 159 190 1
e 159 160 1
e 160 191 1
e 160 161 1
e 161 192 1
e 161 162 1
e 162 193 1
e 162 163 1
e 163 194 1
e 163 164 1
e 164 195 1
e 164 165 1
e 165 196 1
e 165 166 1
e 166 197 1
e 166 167 1
e 167 198 1
e 167 168 1
e 168 199 1
e 168 169 1
e 169 200 1
e 169 170 1
e 170 201 1
e 170 171 1
e 171 202 1
e 171 172 1
e 172 203 1
e 172 173 1
e 173 204 1
e 173 174 1
e 174 205 1
e 174 175 1
e 175 206 1
e 175 176 1
e 177 207 1
e 177 178 1
e 178 208 1
e 178 179 1
e 179 209 1
e 179 180 1
e 180 210 1
e 180 181 1
e 181 211 1
e 182 214 1
e 182 183 1
e 183 215 1
e 183 184 1
e 184 216 1
e 184 185 1
e 185 217 1
e 185 186 1
e 186 218 1
e 186 187 1
e 187 219 1
e 187 188 1
e 188 220 1
e 188 189 1
e 189 221 1
e 190 222 1
e 190 191 1
e 191 223 1
e 191 192 1
e 192 193 1
e 193 194 1
e 194 195 1
e 195 196 1
e 196 224 1
e 196 197 1
e 197 225 1
e 197 198 1
e 198 226 1
e 198 199 1
e 199 227 1
e 199 200 1
e 200 228 1
e 200 201 1
e 201 229 1
e 201 202 1
e 202 230 1
e 202 203 1
e 203 231 1
e 203 204 1
e 204 232 1
e 204 205 1
e 205 233 1
e 205 206 1
e 206 234 1
e 207 238 1
e 207 208 1
e 208 239 1
e 208 209 1
e 209 240 1
e 209 210 1
e 210 241 1
e 210 211 1
e 211 242 1
e 212 246 1
e 212 213 1
e 213 247 1
e 214 251 1
e 214 215 1
e 215 252 1
e 215 216 1
e 216 253 1
e 216 217 1
e 217 254 1
e 217 218 1
e 218 255 1
e 218 219 1
e 219 256 1
e 219 220 1
e 220 257 1
e 220 221 1
e 221 258 1
e 222 223 1
e 224 225 1
e 225 226 1
e 226 266 1
e 226 227 1
e 227 267 1
e 227 228 1
e 228 268 1
e 228 229 1
e 229 269 1
e 229 230 1
e 230 270 1
e 230 231 1
e 231 271 1
e 231 232 1
e 232 272 1
e 232 233 1
e 233 273 1
e 233 234 1
e 234 274 1
e 234 235 1
e 235 275 1
e 235 236 1
e 236 276 1
e 237 278 1
e 237 238 1
e 238 279 1
e 238 239 1
e 239 280 1
e 239 240 1
e 240 281 1
e 240 241 1
e 241 282 1
e 241 242 1
e 242 283 1
e 242 243 1
e 243 284 1
e 243 244 1
e 244 285 1
e 244 245 1
e 245 286 1
e 245 246 1
e 246 287 1
e 246 247 1
e 247 288 1
e 247 248 1
e 248 289 1
e 248 249 1
e 249 290 1
e 249 250 1
e 250 291 1
e 250 251 1
e 251 292 1
e 251 252 1
e 252 293 1
e 252 253 1
e 253 294 1
e 253 254 1
e 254 295 1
e 254 255 1
e 255 296 1
e 255 256 1
e 256 297 1
e 256 257 1
e 257 298 1
e 257 258 1
e 258 299 1
e 259 300 1
e 259 260 1
e 260 301 1
e 260 261 1
e 261 302 1
e 261 262 1
e 262 303 1
e 262 263 1
e 263 304 1
e 263 264 1
e 264 305 1
e 264 265 1
e 265 306 1
e 266 310 1
e 266 267 1
e 267 311 1
e 267 268 1
e 268 312 1
e 268 269 1
e 269 313 1
e 269 270 1
e 270 314 1
e 270 271 1
e 271 315 1
e 271 272 1
e 272 316 1
e 272 273 1
e 273 317 1
e 273 274 1
e 274 318 1
e 274 275 1
e 275 319 1
e 275 276 1
e 276 320 1
e 277 323 1
e 277 278 1
e 278 324 1
e 278 279 1
e 279 325 1
e 279 280 1
e 280 326 1
e 280 281 1
e 281 327 1
e 281 282 1
e 282 328 1
e 282 283 1
e 283 329 1
e 283 284 1
e 284 330 1
e 284 285 1
e 285 331 1
e 285 286 1
e 286 332 1
e 286 287 1
e 287 333 1
e 287 288 1
e 288 334 1
e 288 289 1
e 289 335 1
e 289 290 1
e 290 336 1
e 290 291 1
e 291 337 1
e 291 292 1
e 292 338 1
e 292 293 1
e 293 339 1
e 293 294 1
e 294 340 1
e 294 295 1
e 295 341 1
e 295 296 1
e 296 342 1
e 296 297 1
e 297 343 1
e 297 298 1
e 298 344 1
e 298 299 1
e 299 345 1
e 300 348 1
e 300 301 1
e 301 349 1
e 301 302 1
e 302 350 1
e 302 303 1
e 303 351 1
e 303 304 1
e 304 352 1
e 304 305 1
e 305 353 1
e 305 306 1
e 306 354 1
e 306 307 1
e 307 355 1
e 307 308 1
e 308 356 1
e 308 309 1
e 309 357 1
e 310 359 1
e 310 311 1
e 311 360 1
e 311 312 1
e 312 361 1
e 312 313 1
e 313 362 1
e 313 314 1
e 314 363 1
e 314 315 1
e 315 364 1
e 315 316 1
e 316 365 1
e 316 317 1
e 317 366 1
e 317 318 1
e 318 367 1
e 318 319 1
e 319 368 1
e 319 320 1
e 320 369 1
e 320 321 1
e 321 370 1
e 321 322 1
e 322 371 1
e 322 323 1
e 323 372 1
e 323 324 1
e 324 373 1
e 324 325 1
e 325 374 1
e 325 326 1
e 326 375 1
e 326 327 1
e 327 376 1
e 327 328 1
e 328 377 1
e 328 329 1
e 329 378 1
e 329 330 1
e 330 379 1
e 330 331 1
e 331 380 1
e 331 332 1
e 332 381 1
e 332 333 1
e 333 382 1
e 333 334 1
e 334 383 1
e 334 335 1
e 335 384 1
e 335 336 1
e 336 385 1
e 336 337 1
e 337 386 1
e 337 338 1
e 338 387 1
e 338 339 1
e 339 388 1
e 339 340 1
e 340 389 1
e 340 341 1
e 341 390 1
e 341 342 1
e 342 391 1
e 342 343 1
e 343 392 1
e 343 344 1
e 344 393 1
e 344 345 1
e 345 394 1
e 345 346 1
e 346 395 1
e 346 347 1
e 347 396 1
e 347 348 1
e 348 397 1
e 348 349 1
e 349 398 1
e 349 350 1
e 350 399 1
e 350 351 1
e 351 400 1
e 351 352 1
e 352 401 1
e 352 353 1
e 353 402 1
e 353 354 1
e 354 403 1
e 354 355 1
e 355 404 1
e 355 356 1
e 356 405 1
e 356 357 1
e 357 406 1
e 357 358 1
e 358 407 1
e 359 360 1
e 360 361 1
e 361 362 1
e 362 363 1
e 363 364 1
e 364 365 1
e 365 410 1
e 365 366 1
e 366 411 1
e 366 367 1
e 367 412 1
e 367 368 1
e 368 413 1
e 368 369 1
e 369 414 1
e 369 370 1
e 370 371 1
e 371 372 1
e 372 373 1
e 373 415 1
e 373 374 1
e 374 416 1
e 374 375 1
e 375 417 1
e 375 376 1
e 376 418 1
e 376 377 1
e 377 419 1
e 377 378 1
e 378 420 1
e 378 379 1
e 379 421 1
e 379 380 1
e 380 422 1
e 380 381 1
e 381 423 1
e 381 382 1
e 382 424 1
e 382 383 1
e 383 425 1
e 383 384 1
e 384 426 1
e 384 385 1
e 385 427 1
e 385 386 1
e 386 428 1
e 386 387 1
e 387 429 1
e 387 388 1
e 388 430 1
e 388 389 1
e 389 431 1
e 389 390 1
e 390 432 1
e 390 391 1
e 391 433 1
e 391 392 1
e 392 434 1
e 392 393 1
e 393 435 1
e 393 394 1
e 394 436 1
e 394 395 1
e 395 396 1
e 396 397 1
e 397 437 1
e 397 398 1
e 398 438 1
e 398 399 1
e 399 439 1
e 399 400 1
e 400 440 1
e 400 401 1
e 401 441 1
e 401 402 1
e 402 442 1
e 402 403 1
e 403 443 1
e 403 404 1
e 404 444 1
e 404 405 1
e 405 445 1
e 405 406 1
e 406 446 1
e 406 407 1
e 407 447 1
e 407 408 1
e 408 448 1
e 408 409 1
e 409 449 1
e 410 451 1
e 410 411 1
e 411 452 1
e 411 412 1
e 412 453 1
e 412 413 1
e 413 454 1
e 413 414 1
e 414 455 1
e 415 456 1
e 415 416 1
e 416 457 1
e 416 417 1
e 417 458 1
e 417 418 1
e 418 459 1
e 418 419 1
e 419 460 1
e 419 420 1
e 420 461 1
e 420 421 1
e 421 462 1
e 421 422 1
e 422 463 1
e 422 423 1
e 423 464 1
e 423 424 1
e 424 465 1
e 424 425 1
e 425 466 1
e 425 426 1
e 426 467 1
e 426 427 1
e 427 468 1
e 427 428 1
e 428 469 1
e 428 429 1
e 429 470 1
e 429 430 1
e 430 471 1
e 430 431 1
e 431 472 1
e 431 432 1
e 432 473 1
e 432 433 1
e 433 474 1
e 433 434 1
e 434 475 1
e 434 435 1
e 435 476 1
e 435 436 1
e 436 477 1
e 437 478 1
e 437 438 1
e 438 479 1
e 438 439 1
e 439 480 1
e 439 440 1
e 440 481 1
e 440 441 1
e 441 482 1
e 441 442 1
e 442 483 1
e 442 443 1
e 443 484 1
e 443 444 1
e 444 485 1
e 444 445 1
e 445 486 1
e 445 446 1
e 446 487 1
e 446 447 1
e 447 488 1
e 447 448 1
e 448 489 1
e 448 449 1
e 449 490 1
e 449 450 1
e 450 491 1
e 451 492 1
e 451 452 1
e 452 493 1
e 452 453 1
e 453 494 1
e 453 454 1
e 454 495 1
e 454 455 1
e 455 496 1
e 456 497 1
e 456 457 1
e 457 498 1
e 457 458 1
e 458 499 1
e 458 459 1
e 459 500 1
e 459 460 1
e 460 501 1
e 460 461 1
e 461 502 1
e 461 462 1
e 462 503 1
e 462 463 1
e 463 504 1
e 463 464 1
e 464 505 1
e 464 465 1
e 465 506 1
e 465 466 1
e 466 507 1
e 466 467 1
e 467 508 1
e 467 468 1
e 468 509 1
e 468 469 1
e 469 510 1
e 469 470 1
e 470 511 1
e 470 471 1
e 471 512 1
e 471 472 1
e 472 513 1
e 472 473 1
e 473 514 1
e 473 474 1
e 474 515 1
e 474 475 1
e 475 516 1
e 475 476 1
e 476 477 1
e 478 479 1
e 479 517 1
e 479 480 1
e 480 518 1
e 480 481 1
e 481 519 1
e 481 482 1
e 482 520 1
e 482 483 1
e 483 521 1
e 483 484 1
e 484 522 1
e 484 485 1
e 485 523 1
e 485 486 1
e 486 524 1
e 486 487 1
e 487 525 1
e 487 488 1
e 488 526 1
e 488 489 1
e 489 527 1
e 489 490 1
e 490 528 1
e 490 491 1
e 491 529 1
e 492 530 1
e 492 493 1
e 493 531 1
e 493 494 1
e 494 532 1
e 494 495 1
e 495 533 1
e 495 496 1
e 496 534 1
e 497 498 1
e 498 535 1
e 498 499 1
e 499 536 1
e 499 500 1
e 500 537 1
e 500 501 1
e 501 538 1
e 501 502 1
e 502 539 1
e 502 503 1
e 503 540 1
e 503 504 1
e 504 541 1
e 504 505 1
e 505 542 1
e 505 506 1
e 506 543 1
e 506 507 1
e 507 544 1
e 507 508 1
e 508 545 1
e 508 509 1
e 509 546 1
e 509 510 1
e 510 547 1
e 510 511 1
e 511 548 1
e 511 512 1
e 512 549 1
e 512 513 1
e 513 550 1
e 513 514 1
e 514 551 1
e 514 515 1
e 515 552 1
e 515 516 1
e 516 553 1
e 517 518 1
e 518 519 1
e 519 554 1
e 519 520 1
e 520 555 1
e 520 521 1
e 521 556 1
e 521 522 1
e 522 557 1
e 522 523 1
e 523 558 1
e 523 524 1
e 524 525 1
e 525 526 1
e 526 527 1
e 527 528 1
e 528 529 1
e 530 531 1
e 531 532 1
e 532 559 1
e 532 533 1
e 533 560 1
e 533 534 1
e 535 561 1
e 535 536 1
e 536 562 1
e 536 537 1
e 537 563 1
e 537 538 1
e 538 564 1
e 538 539 1
e 539 565 1
e 539 540 1
e 540 566 1
e 540 541 1
e 541 567 1
e 541 542 1
e 542 568 1
e 542 543 1
e 543 569 1
e 543 544 1
e 544 570 1
e 544 545 1
e 545 571 1
e 545 546 1
e 546 572 1
e 546 547 1
e 547 573 1
e 547 548 1
e 548 574 1
e 548 549 1
e 549 575 1
e 549 550 1
e 550 576 1
e 550 551 1
e 551 577 1
e 551 552 1
e 552 578 1
e 552 553 1
e 554 579 1
e 554 555 1
e 555 580 1
e 555 556 1
e 556 581 1
e 556 557 1
e 557 582 1
e 557 558 1
e 558 583 1
e 559 584 1
e 559 560 1
e 560 585 1
e 561 586 1
e 561 562 1
e 562 587 1
e 562 563 1
e 563 588 1
e 563 564 1
e 564 589 1
e 564 565 1
e 565 590 1
e 565 566 1
e 566 591 1
e 566 567 1
e 567 592 1
e 567 568 1
e 568 593 1
e 568 569 1
e 569 594 1
e 569 570 1
e 570 595 1
e 570 571 1
e 571 596 1
e 571 572 1
e 572 597 1
e 572 573 1
e 573 598 1
e 573 574 1
e 574 599 1
e 574 575 1
e 575 600 1
e 575 576 1
e 576 601 1
e 576 577 1
e 577 602 1
e 577 578 1
e 578 603 1
e 579 604 1
e 579 580 1
e 580 605 1
e 580 581 1
e 581 606 1
e 581 582 1
e 582 607 1
e 582 583 1
e 583 608 1
e 584 609 1
e 584 585 1
e 585 610 1
e 586 611 1
e 586 587 1
e 587 612 1
e 587 588 1
e 588 613 1
e 588 589 1
e 589 614 1
e 589 590 1
e 590 615 1
e 590 591 1
e 591 616 1
e 591 592 1
e 592 617 1
e 592 593 1
e 593 618 1
e 593 594 1
e 594 619 1
e 594 595 1
e 595 620 1
e 595 596 1
e 596 621 1
e 596 597 1
e 597 622 1
e 597 598 1
e 598 623 1
e 598 599 1
e 599 624 1
e 599 600 1
e 600 625 1
e 600 601 1
e 601 626 1
e 601 602 1
e 602 627 1
e 602 603 1
e 603 628 1
e 604 605 1
e 605 629 1
e 605 606 1
e 606 630 1
e 606 607 1
e 607 631 1
e 607 608 1
e 608 632 1
e 609 610 1
e 611 633 1
e 611 612 1
e 612 634 1
e 612 613 1
e 613 635 1
e 613 614 1
e 614 636 1
e 614 615 1
e 615 637 1
e 615 616 1
e 616 638 1
e 616 617 1
e 617 639 1
e 617 618 1
e 618 640 1
e 618 619 1
e 619 641 1
e 619 620 1
e 620 642 1
e 620 621 1
e 621 643 1
e 621 622 1
e 622 644 1
e 622 623 1
e 623 645 1
e 623 624 1
e 624 646 1
e 624 625 1
e 625 647 1
e 625 626 1
e 626 648 1
e 626 627 1
e 627 649 1
e 627 628 1
e 628 650 1
e 629 651 1
e 629 630 1
e 630 652 1
e 630 631 1
e 631 653 1
e 631 632 1
e 632 654 1
e 633 634 1
e 634 635 1
e 635 636 1
e 636 637 1
e 637 638 1
e 638 655 1
e 638 639 1
e 639 656 1
e 639 640 1
e 640 657 1
e 640 641 1
e 641 658 1
e 641 642 1
e 642 659 1
e 642 643 1
e 643 660 1
e 643 644 1
e 644 661 1
e 644 645 1
e 645 662 1
e 645 646 1
e 646 663 1
e 646 647 1
e 647 664 1
e 647 648 1
e 648 665 1
e 648 649 1
e 649 666 1
e 649 650 1
e 650 667 1
e 651 668 1
e 651 652 1
e 652 669 1
e 652 653 1
e 653 670 1
e 653 654 1
e 654 671 1
e 655 656 1
e 656 657 1
e 657 658 1
e 658 659 1
e 659 672 1
e 659 660 1
e 660 673 1
e 660 661 1
e 661 662 1
e 662 663 1
e 663 664 1
e 664 674 1
e 664 665 1
e 665 666 1
e 666 667 1
e 668 669 1
e 669 670 1
e 670 675 1
e 670 671 1
e 671 676 1
e 672 677 1
e 672 673 1
e 673 678 1
e 675 676 1
e 677 679 1
e 677 678 1
e 678 680 1
e 679 691 1
e 679 680 1
e 680 692 1
e 681 699 1
e 681 682 1
e 682 700 1
e 682 683 1
e 683 701 1
e 683 684 1
e 684 702 1
e 684 685 1
e 685 703 1
e 685 686 1
e 686 704 1
e 686 687 1
e 687 705 1
e 687 688 1
e 688 706 1
e 688 689 1
e 689 707 1
e 689 690 1
e 690 708 1
e 690 691 1
e 691 709 1
e 691 692 1
e 692 710 1
e 692 693 1
e 693 711 1
e 693 694 1
e 694 712 1
e 695 713 1
e 695 696 1
e 696 714 1
e 696 697 1
e 697 715 1
e 697 698 1
e 698 716 1
e 699 717 1
e 699 700 1
e 700 718 1
e 700 701 1
e 701 719 1
e 701 702 1
e 702 720 1
e 702 703 1
e 703 721 1
e 703 704 1
e 704 722 1
e 704 705 1
e 705 723 1
e 705 706 1
e 706 724 1
e 706 707 1
e 707 725 1
e 707 708 1
e 708 726 1
e 708 709 1
e 709 727 1
e 709 710 1
e 710 728 1
e 710 711 1
e 711 729 1
e 711 712 1
e 712 730 1
e 713 735 1
e 713 714 1
e 714 736 1
e 714 715 1
e 715 716 1
e 717 718 1
e 718 719 1
e 719 737 1
e 719 720 1
e 720 738 1
e 720 721 1
e 721 739 1
e 721 722 1
e 722 740 1
e 722 723 1
e 723 741 1
e 723 724 1
e 724 742 1
e 724 725 1
e 725 743 1
e 725 726 1
e 726 744 1
e 726 727 1
e 727 745 1
e 727 728 1
e 728 746 1
e 728 729 1
e 729 747 1
e 729 730 1
e 730 748 1
e 730 731 1
e 731 749 1
e 731 732 1
e 732 750 1
e 732 733 1
e 733 751 1
e 733 734 1
e 734 752 1
e 734 735 1
e 735 753 1
e 735 736 1
e 736 754 1
e 737 755 1
e 737 738 1
e 738 756 1
e 738 739 1
e 739 757 1
e 739 740 1
e 740 758 1
e 740 741 1
e 741 759 1
e 741 742 1
e 742 760 1
e 742 743 1
e 743 761 1
e 743 744 1
e 744 762 1
e 744 745 1
e 745 763 1
e 745 746 1
e 746 764 1
e 746 747 1
e 747 765 1
e 747 748 1
e 748 766 1
e 748 749 1
e 749 767 1
e 749 750 1
e 750 768 1
e 750 751 1
e 751 769 1
e 751 752 1
e 752 770 1
e 752 753 1
e 753 771 1
e 753 754 1
e 754 772 1
e 755 773 1
e 755 756 1
e 756 774 1
e 756 757 1
e 757 775 1
e 757 758 1
e 758 776 1
e 758 759 1
e 759 777 1
e 759 760 1
e 760 778 1
e 760 761 1
e 761 779 1
e 761 762 1
e 762 780 1
e 762 763 1
e 763 781 1
e 763 764 1
e 764 782 1
e 764 765 1
e 765 783 1
e 765 766 1
e 766 784 1
e 766 767 1
e 767 785 1
e 767 768 1
e 768 786 1
e 768 769 1
e 769 787 1
e 769 770 1
e 770 788 1
e 770 771 1
e 771 789 1
e 771 772 1
e 772 790 1
e 773 791 1
e 773 774 1
e 774 792 1
e 774 775 1
e 775 793 1
e 775 776 1
e 776 794 1
e 776 777 1
e 777 795 1
e 777 778 1
e 778 796 1
e 778 779 1
e 779 797 1
e 779 780 1
e 780 798 1
e 780 781 1
e 781 799 1
e 781 782 1
e 782 800 1
e 782 783 1
e 783 801 1
e 783 784 1
e 784 802 1
e 784 785 1
e 785 803 1
e 785 786 1
e 786 804 1
e 786 787 1
e 787 805 1
e 787 788 1
e 788 806 1
e 788 789 1
e 789 807 1
e 789 790 1
e 790 808 1
e 791 809 1
e 791 792 1
e 792 810 1
e 792 793 1
e 793 811 1
e 793 794 1
e 794 812 1
e 794 795 1
e 795 813 1
e 795 796 1
e 796 814 1
e 796 797 1
e 797 815 1
e 797 798 1
e 798 816 1
e 798 799 1
e 799 817 1
e 799 800 1
e 800 818 1
e 800 801 1
e 801 819 1
e 801 802 1
e 802 820 1
e 802 803 1
e 803 821 1
e 803 804 1
e 804 822 1
e 804 805 1
e 805 823 1
e 805 806 1
e 806 824 1
e 806 807 1
e 807 825 1
e 807 808 1
e 808 826 1
e 809 827 1
e 809 810 1
e 810 828 1
e 810 811 1
e 811 829 1
e 811 812 1
e 812 830 1
e 812 813 1
e 813 831 1
e 813 814 1
e 814 832 1
e 814 815 1
e 815 833 1
e 815 816 1
e 816 834 1
e 816 817 1
e 817 835 1
e 817 818 1
e 818 836 1
e 818 819 1
e 819 837 1
e 819 820 1
e 820 838 1
e 820 821 1
e 821 839 1
e 821 822 1
e 822 840 1
e 822 823 1
e 823 841 1
e 823 824 1
e 824 842 1
e 824 825 1
e 825 843 1
e 825 826 1
e 826 844 1
e 827 845 1
e 827 828 1
e 828 846 1
e 828 829 1
e 829 847 1
e 829 830 1
e 830 848 1
e 830 831 1
e 831 849 1
e 831 832 1
e 832 850 1
e 832 833 1
e 833 851 1
e 833 834 1
e 834 852 1
e 834 835 1
e 835 853 1
e 835 836 1
e 836 854 1
e 836 837 1
e 837 855 1
e 837 838 1
e 838 856 1
e 838 839 1
e 839 857 1
e 839 840 1
e 840 858 1
e 840 841 1
e 841 859 1
e 841 842 1
e 842 860 1
e 842 843 1
e 843 861 1
e 843 844 1
e 844 862 1
e 845 864 1
e 845 846 1
e 846 865 1
e 846 847 1
e 847 866 1
e 847 848 1
e 848 867 1
e 848 849 1
e 849 868 1
e 849 850 1
e 850 869 1
e 850 851 1
e 851 870 1
e 851 852 1
e 852 871 1
e 852 853 1
e 853 872 1
e 853 854 1
e 854 873 1
e 854 855 1
e 855 874 1
e 855 856 1
e 856 875 1
e 856 857 1
e 857 876 1
e 857 858 1
e 858 877 1
e 858 859 1
e 859 878 1
e 859 860 1
e 860 879 1
e 860 861 1
e 861 880 1
e 861 862 1
e 862 881 1
e 862 863 1
e 863 882 1
e 864 865 1
e 865 866 1
e 866 867 1
e 867 868 1
e 868 883 1
e 868 869 1
e 869 884 1
e 869 870 1
e 870 885 1
e 870 871 1
e 871 886 1
e 871 872 1
e 872 887 1
e 872 873 1
e 873 888 1
e 873 874 1
e 874 889 1
e 874 875 1
e 875 890 1
e 875 876 1
e 876 891 1
e 876 877 1
e 877 892 1
e 877 878 1
e 878 893 1
e 878 879 1
e 879 894 1
e 879 880 1
e 880 895 1
e 880 881 1
e 881 896 1
e 881 882 1
e 882 897 1
e 883 898 1
e 883 884 1
e 884 899 1
e 884 885 1
e 885 900 1
e 885 886 1
e 886 901 1
e 886 887 1
e 887 902 1
e 887 888 1
e 888 903 1
e 888 889 1
e 889 904 1
e 889 890 1
e 890 905 1
e 890 891 1
e 891 906 1
e 891 892 1
e 892 907 1
e 892 893 1
e 893 908 1
e 893 894 1
e 894 909 1
e 894 895 1
e 895 910 1
e 895 896 1
e 896 897 1
e 898 911 1
e 898 899 1
e 899 912 1
e 899 900 1
e 900 913 1
e 900 901 1
e 901 914 1
e 901 902 1
e 902 915 1
e 902 903 1
e 903 916 1
e 903 904 1
e 904 917 1
e 904 905 1
e 905 918 1
e 905 906 1
e 906 919 1
e 906 907 1
e 907 920 1
e 907 908 1
e 908 921 1
e 908 909 1
e 909 910 1
e 911 912 1
e 912 913 1
e 913 914 1
e 914 915 1
e 915 922 1
e 915 916 1
e 916 923 1
e 916 917 1
e 917 918 1
e 918 919 1
e 919 920 1
e 920 921 1
e 922 924 1
e 922 923 1
e 923 925 1
e 924 925 1